3
Properties=species:S:1:pos:R:3 pbc="F F F"
H        0.54881350       0.71518937       0.60276338
H        0.54488318       0.42365480       0.64589411
O        0.43758721       0.89177300       0.96366276
3
Properties=species:S:1:pos:R:3 pbc="F F F"
H        0.38344152       0.79172504       0.52889492
H        0.56804456       0.92559664       0.07103606
O        0.08712930       0.02021840       0.83261985
3
Properties=species:S:1:pos:R:3 pbc="F F F"
H        0.77815675       0.87001215       0.97861834
H        0.79915856       0.46147936       0.78052918
O        0.11827443       0.63992102       0.14335329
3
Properties=species:S:1:pos:R:3 pbc="F F F"
H        0.94466892       0.52184832       0.41466194
H        0.26455561       0.77423369       0.45615033
O        0.56843395       0.01878980       0.61763550
3
Properties=species:S:1:pos:R:3 pbc="F F F"
H        0.61209572       0.61693400       0.94374808
H        0.68182030       0.35950790       0.43703195
O        0.69763120       0.06022547       0.66676672
